&CONTROL
   tstress          = .true.
   tprnfor          = .true.
/
&SYSTEM
   ecutwfc          = 40.0
   occupations      = 'smearing'
   degauss          = 0.002
   smearing         = 'gaussian'
   input_dft        = 'pbe'
   ntyp             = 4
   nat              = 93
   ibrav            = 0
/
&ELECTRONS
   electron_maxstep = 50
   conv_thr         = 2e-11
   mixing_mode      = 'local-TF'
   mixing_beta      = 0.7
   mixing_ndim      = 10
/
&IONS
/
&CELL
/

ATOMIC_SPECIES
Si 28.085 Si.pbe-hgh.UPF
O 15.999 O.pbe-hgh.UPF
H 1.008 H.pbe-hgh.UPF
Al 26.9815385 Al.pbe-hgh.UPF

K_POINTS automatic
3 5 1  0 0 0

CELL_PARAMETERS angstrom
8.63479793124097 0.00000000000000 0.00000000000000
0.00000000000000 5.47852971000000 0.00000000000000
0.00000000000000 0.00000000000000 35.85540217408956

ATOMIC_POSITIONS angstrom
Si 6.8289082695 0.9810187087 1.8088970948 
Si 2.2622917595 4.6333736787 1.8088970948 
Si 4.5456000195 2.8071934587 0.7784000848 
Si 2.5115092995 0.9810187087 4.3015485448 
Si 6.5796907295 4.6333736787 4.3015485448 
Si 0.2282010495 2.8071934587 3.2710515448 
Si 6.8289082695 0.9810187087 6.7942000048 
Si 2.2622917595 4.6333736787 6.7942000048 
Si 4.5456000195 2.8071934587 5.7637029948 
Si 2.5115092995 0.9810187087 9.2868514548 
Si 6.5796907295 4.6333736787 9.2868514548 
Si 0.2282010495 2.8071934587 8.2563544548 
Si 6.8289082695 0.9810187087 11.7795029148 
Si 2.2622917595 4.6333736787 11.7795029148 
Si 4.5456000195 2.8071934587 10.7490059048 
O 6.3331586095 5.2937172987 2.8356401648 
O 8.2216882195 1.6413623287 2.3283482048 
O 3.3993521795 3.4675425587 1.7248573448 
O 2.7580414195 0.3206696087 2.8356401648 
O 0.8695118095 3.9730245787 2.3283482048 
O 5.6918478495 2.1468443487 1.7248573448 
O 2.0157596495 5.2937172987 5.3282916248 
O 3.9042892595 1.6413623287 4.8209996648 
O 7.7167511395 3.4675425587 4.2175088048 
O 7.0754403795 0.3206696087 5.3282916248 
O 5.1869107795 3.9730245787 4.8209996648 
O 1.3744488895 2.1468443487 4.2175088048 
O 6.3331586095 5.2937172987 7.8209430748 
O 8.2216882195 1.6413623287 7.3136511148 
O 3.3993521795 3.4675425587 6.7101602548 
O 2.7580414195 0.3206696087 7.8209430748 
O 0.8695118095 3.9730245787 7.3136511148 
O 5.6918478495 2.1468443487 6.7101602548 
O 2.0157596495 5.2937172987 10.3135945348 
O 3.9042892595 1.6413623287 9.8063025748 
O 7.7167511395 3.4675425587 9.2028117148 
O 7.0754403795 0.3206696087 10.3135945348 
O 5.1869107795 3.9730245787 9.8063025748 
O 1.3744488895 2.1468443487 9.2028117148 
O 6.3331586095 5.2937172987 12.8062459848 
O 8.2216882195 1.6413623287 12.2989540248 
O 3.3993521795 3.4675425587 11.6954631648 
O 2.7580414195 0.3206696087 12.8062459848 
O 0.8695118095 3.9730245787 12.2989540248 
O 5.6918478495 2.1468443487 11.6954631648 
H 2.2622917595 4.6333736787 0.8588970948 
H 6.8289082695 0.9810187087 0.8588970948 
H 4.0956000195 2.1071934587 0.3284000848 
H 4.9456000195 3.5071934587 0.3284000848 
H 6.3331586095 5.2937172987 13.7562459848 
H 8.2216882195 1.6413623287 13.2489540248 
H 2.7580414195 0.3206696087 13.7562459848 
H 0.8695118095 3.9730245787 13.2489540248 
Al 1.1137600504 1.4172147957 15.5940341628 
Al 3.2724595332 4.1564796507 15.5940341628 
Al 1.1137600504 4.1564796507 17.6190341628 
Al 3.2724595332 1.4172147957 17.6190341628 
Al 1.1137600504 1.4172147957 19.6440341628 
Al 3.2724595332 4.1564796507 19.6440341628 
Al 1.1137600504 4.1564796507 21.6690341628 
Al 3.2724595332 1.4172147957 21.6690341628 
Al 1.1137600504 1.4172147957 23.6940341628 
Al 3.2724595332 4.1564796507 23.6940341628 
Al 1.1137600504 4.1564796507 25.7190341628 
Al 3.2724595332 1.4172147957 25.7190341628 
Al 1.1137600504 1.4172147957 27.7440341628 
Al 3.2724595332 4.1564796507 27.7440341628 
Al 1.1137600504 4.1564796507 29.7690341628 
Al 3.2724595332 1.4172147957 29.7690341628 
Al 1.1137600504 1.4172147957 31.7940341628 
Al 3.2724595332 4.1564796507 31.7940341628 
Al 1.1137600504 4.1564796507 33.8190341628 
Al 3.2724595332 1.4172147957 33.8190341628 
Al 5.4311590160 1.4172147957 15.5940341628 
Al 7.5898584988 4.1564796507 15.5940341628 
Al 5.4311590160 4.1564796507 17.6190341628 
Al 7.5898584988 1.4172147957 17.6190341628 
Al 5.4311590160 1.4172147957 19.6440341628 
Al 7.5898584988 4.1564796507 19.6440341628 
Al 5.4311590160 4.1564796507 21.6690341628 
Al 7.5898584988 1.4172147957 21.6690341628 
Al 5.4311590160 1.4172147957 23.6940341628 
Al 7.5898584988 4.1564796507 23.6940341628 
Al 5.4311590160 4.1564796507 25.7190341628 
Al 7.5898584988 1.4172147957 25.7190341628 
Al 5.4311590160 1.4172147957 27.7440341628 
Al 7.5898584988 4.1564796507 27.7440341628 
Al 5.4311590160 4.1564796507 29.7690341628 
Al 7.5898584988 1.4172147957 29.7690341628 
Al 5.4311590160 1.4172147957 31.7940341628 
Al 7.5898584988 4.1564796507 31.7940341628 
Al 5.4311590160 4.1564796507 33.8190341628 
Al 7.5898584988 1.4172147957 33.8190341628 

