&CONTROL
   tstress          = .true.
   tprnfor          = .true.
/
&SYSTEM
   ecutwfc          = 40.0
   occupations      = 'smearing'
   degauss          = 0.002
   smearing         = 'gaussian'
   input_dft        = 'pbe'
   ntyp             = 4
   nat              = 178
   ibrav            = 0
/
&ELECTRONS
   electron_maxstep = 50
   conv_thr         = 2e-11
   mixing_mode      = 'local-TF'
   mixing_beta      = 0.7
   mixing_ndim      = 10
/
&IONS
/
&CELL
/

ATOMIC_SPECIES
Si 28.085 Si.pbe-hgh.UPF
O 15.999 O.pbe-hgh.UPF
H 1.008 H.pbe-hgh.UPF
Al 26.9815385 Al.pbe-hgh.UPF

K_POINTS automatic
3 5 1  0 0 0

CELL_PARAMETERS angstrom
8.63479793124097 0.00000000000000 0.00000000000000
0.00000000000000 5.47852971000000 0.00000000000000
0.00000000000000 0.00000000000000 68.65229107567261

ATOMIC_POSITIONS angstrom
Si 6.8832142085 0.9353457262 1.9681575205 
Si 2.3165976985 4.5877006962 1.9681575205 
Si 4.5999059585 2.7615204762 0.9376605105 
Si 2.5658152385 0.9353457262 4.4608089705 
Si 6.6339966685 4.5877006962 4.4608089705 
Si 0.2825069885 2.7615204762 3.4303119705 
Si 6.8832142085 0.9353457262 6.9534604305 
Si 2.3165976985 4.5877006962 6.9534604305 
Si 4.5999059585 2.7615204762 5.9229634205 
Si 2.5658152385 0.9353457262 9.4461118805 
Si 6.6339966685 4.5877006962 9.4461118805 
Si 0.2825069885 2.7615204762 8.4156148805 
Si 6.8832142085 0.9353457262 11.9387633405 
Si 2.3165976985 4.5877006962 11.9387633405 
Si 4.5999059585 2.7615204762 10.9082663305 
Si 2.5658152385 0.9353457262 14.4314147905 
Si 6.6339966685 4.5877006962 14.4314147905 
Si 0.2825069885 2.7615204762 13.4009177905 
Si 6.8832142085 0.9353457262 16.9240662505 
Si 2.3165976985 4.5877006962 16.9240662505 
Si 4.5999059585 2.7615204762 15.8935692405 
Si 2.5658152385 0.9353457262 19.4167177005 
Si 6.6339966685 4.5877006962 19.4167177005 
Si 0.2825069885 2.7615204762 18.3862207005 
Si 6.8832142085 0.9353457262 21.9093691605 
Si 2.3165976985 4.5877006962 21.9093691605 
Si 4.5999059585 2.7615204762 20.8788721505 
Si 2.5658152385 0.9353457262 24.4020206105 
Si 6.6339966685 4.5877006962 24.4020206105 
Si 0.2825069885 2.7615204762 23.3715236105 
O 6.3874645485 5.2480443162 2.9949005905 
O 8.2759941585 1.5956893462 2.4876086305 
O 3.4536581185 3.4218695762 1.8841177705 
O 2.8123473585 0.2749966262 2.9949005905 
O 0.9238177485 3.9273515962 2.4876086305 
O 5.7461537885 2.1011713662 1.8841177705 
O 2.0700655885 5.2480443162 5.4875520505 
O 3.9585951985 1.5956893462 4.9802600905 
O 7.7710570785 3.4218695762 4.3767692305 
O 7.1297463185 0.2749966262 5.4875520505 
O 5.2412167185 3.9273515962 4.9802600905 
O 1.4287548285 2.1011713662 4.3767692305 
O 6.3874645485 5.2480443162 7.9802035005 
O 8.2759941585 1.5956893462 7.4729115405 
O 3.4536581185 3.4218695762 6.8694206805 
O 2.8123473585 0.2749966262 7.9802035005 
O 0.9238177485 3.9273515962 7.4729115405 
O 5.7461537885 2.1011713662 6.8694206805 
O 2.0700655885 5.2480443162 10.4728549605 
O 3.9585951985 1.5956893462 9.9655630005 
O 7.7710570785 3.4218695762 9.3620721405 
O 7.1297463185 0.2749966262 10.4728549605 
O 5.2412167185 3.9273515962 9.9655630005 
O 1.4287548285 2.1011713662 9.3620721405 
O 6.3874645485 5.2480443162 12.9655064105 
O 8.2759941585 1.5956893462 12.4582144505 
O 3.4536581185 3.4218695762 11.8547235905 
O 2.8123473585 0.2749966262 12.9655064105 
O 0.9238177485 3.9273515962 12.4582144505 
O 5.7461537885 2.1011713662 11.8547235905 
O 2.0700655885 5.2480443162 15.4581578705 
O 3.9585951985 1.5956893462 14.9508659105 
O 7.7710570785 3.4218695762 14.3473750505 
O 7.1297463185 0.2749966262 15.4581578705 
O 5.2412167185 3.9273515962 14.9508659105 
O 1.4287548285 2.1011713662 14.3473750505 
O 6.3874645485 5.2480443162 17.9508093205 
O 8.2759941585 1.5956893462 17.4435173605 
O 3.4536581185 3.4218695762 16.8400265005 
O 2.8123473585 0.2749966262 17.9508093205 
O 0.9238177485 3.9273515962 17.4435173605 
O 5.7461537885 2.1011713662 16.8400265005 
O 2.0700655885 5.2480443162 20.4434607805 
O 3.9585951985 1.5956893462 19.9361688205 
O 7.7710570785 3.4218695762 19.3326779605 
O 7.1297463185 0.2749966262 20.4434607805 
O 5.2412167185 3.9273515962 19.9361688205 
O 1.4287548285 2.1011713662 19.3326779605 
O 6.3874645485 5.2480443162 22.9361122305 
O 8.2759941585 1.5956893462 22.4288202705 
O 3.4536581185 3.4218695762 21.8253294105 
O 2.8123473585 0.2749966262 22.9361122305 
O 0.9238177485 3.9273515962 22.4288202705 
O 5.7461537885 2.1011713662 21.8253294105 
O 2.0700655885 5.2480443162 25.4287636905 
O 3.9585951985 1.5956893462 24.9214717305 
O 7.7710570785 3.4218695762 24.3179808705 
O 7.1297463185 0.2749966262 25.4287636905 
O 5.2412167185 3.9273515962 24.9214717305 
O 1.4287548285 2.1011713662 24.3179808705 
H 2.3165976985 4.5877006962 1.0181575205 
H 6.8832142085 0.9353457262 1.0181575205 
H 4.1499059585 2.0615204762 0.4876605105 
H 4.9999059585 3.4615204762 0.4876605105 
H 2.0700655885 5.2480443162 26.3787636905 
H 3.9585951985 1.5956893462 25.8714717305 
H 7.1297463185 0.2749966262 26.3787636905 
H 5.2412167185 3.9273515962 25.8714717305 
Al 1.0647289204 1.3646595888 28.2786620470 
Al 3.2234284033 4.1039244438 28.2786620470 
Al 1.0647289204 4.1039244438 30.3036620470 
Al 3.2234284033 1.3646595888 30.3036620470 
Al 1.0647289204 1.3646595888 32.3286620470 
Al 3.2234284033 4.1039244438 32.3286620470 
Al 1.0647289204 4.1039244438 34.3536620470 
Al 3.2234284033 1.3646595888 34.3536620470 
Al 1.0647289204 1.3646595888 36.3786620470 
Al 3.2234284033 4.1039244438 36.3786620470 
Al 1.0647289204 4.1039244438 38.4036620470 
Al 3.2234284033 1.3646595888 38.4036620470 
Al 1.0647289204 1.3646595888 40.4286620470 
Al 3.2234284033 4.1039244438 40.4286620470 
Al 1.0647289204 4.1039244438 42.4536620470 
Al 3.2234284033 1.3646595888 42.4536620470 
Al 1.0647289204 1.3646595888 44.4786620470 
Al 3.2234284033 4.1039244438 44.4786620470 
Al 1.0647289204 4.1039244438 46.5036620470 
Al 3.2234284033 1.3646595888 46.5036620470 
Al 1.0647289204 1.3646595888 48.5286620470 
Al 3.2234284033 4.1039244438 48.5286620470 
Al 1.0647289204 4.1039244438 50.5536620470 
Al 3.2234284033 1.3646595888 50.5536620470 
Al 1.0647289204 1.3646595888 52.5786620470 
Al 3.2234284033 4.1039244438 52.5786620470 
Al 1.0647289204 4.1039244438 54.6036620470 
Al 3.2234284033 1.3646595888 54.6036620470 
Al 1.0647289204 1.3646595888 56.6286620470 
Al 3.2234284033 4.1039244438 56.6286620470 
Al 1.0647289204 4.1039244438 58.6536620470 
Al 3.2234284033 1.3646595888 58.6536620470 
Al 1.0647289204 1.3646595888 60.6786620470 
Al 3.2234284033 4.1039244438 60.6786620470 
Al 1.0647289204 4.1039244438 62.7036620470 
Al 3.2234284033 1.3646595888 62.7036620470 
Al 1.0647289204 1.3646595888 64.7286620470 
Al 3.2234284033 4.1039244438 64.7286620470 
Al 1.0647289204 4.1039244438 66.7536620470 
Al 3.2234284033 1.3646595888 66.7536620470 
Al 5.3821278861 1.3646595888 28.2786620470 
Al 7.5408273689 4.1039244438 28.2786620470 
Al 5.3821278861 4.1039244438 30.3036620470 
Al 7.5408273689 1.3646595888 30.3036620470 
Al 5.3821278861 1.3646595888 32.3286620470 
Al 7.5408273689 4.1039244438 32.3286620470 
Al 5.3821278861 4.1039244438 34.3536620470 
Al 7.5408273689 1.3646595888 34.3536620470 
Al 5.3821278861 1.3646595888 36.3786620470 
Al 7.5408273689 4.1039244438 36.3786620470 
Al 5.3821278861 4.1039244438 38.4036620470 
Al 7.5408273689 1.3646595888 38.4036620470 
Al 5.3821278861 1.3646595888 40.4286620470 
Al 7.5408273689 4.1039244438 40.4286620470 
Al 5.3821278861 4.1039244438 42.4536620470 
Al 7.5408273689 1.3646595888 42.4536620470 
Al 5.3821278861 1.3646595888 44.4786620470 
Al 7.5408273689 4.1039244438 44.4786620470 
Al 5.3821278861 4.1039244438 46.5036620470 
Al 7.5408273689 1.3646595888 46.5036620470 
Al 5.3821278861 1.3646595888 48.5286620470 
Al 7.5408273689 4.1039244438 48.5286620470 
Al 5.3821278861 4.1039244438 50.5536620470 
Al 7.5408273689 1.3646595888 50.5536620470 
Al 5.3821278861 1.3646595888 52.5786620470 
Al 7.5408273689 4.1039244438 52.5786620470 
Al 5.3821278861 4.1039244438 54.6036620470 
Al 7.5408273689 1.3646595888 54.6036620470 
Al 5.3821278861 1.3646595888 56.6286620470 
Al 7.5408273689 4.1039244438 56.6286620470 
Al 5.3821278861 4.1039244438 58.6536620470 
Al 7.5408273689 1.3646595888 58.6536620470 
Al 5.3821278861 1.3646595888 60.6786620470 
Al 7.5408273689 4.1039244438 60.6786620470 
Al 5.3821278861 4.1039244438 62.7036620470 
Al 7.5408273689 1.3646595888 62.7036620470 
Al 5.3821278861 1.3646595888 64.7286620470 
Al 7.5408273689 4.1039244438 64.7286620470 
Al 5.3821278861 4.1039244438 66.7536620470 
Al 7.5408273689 1.3646595888 66.7536620470 

