&CONTROL
   tstress          = .true.
   tprnfor          = .true.
/
&SYSTEM
   ecutwfc          = 40.0
   occupations      = 'smearing'
   degauss          = 0.002
   smearing         = 'gaussian'
   input_dft        = 'pbe'
   ntyp             = 1
   nat              = 20
   ibrav            = 0
/
&ELECTRONS
   electron_maxstep = 50
   conv_thr         = 2e-11
   mixing_mode      = 'local-TF'
   mixing_beta      = 0.7
   mixing_ndim      = 10
/
&IONS
/
&CELL
/

ATOMIC_SPECIES
Al 26.9815385 Al.pbe-hgh.UPF

K_POINTS automatic
6 6 1  0 0 0

CELL_PARAMETERS angstrom
4.05000000000000 0.00000000000000 0.00000000000000
0.00000000000000 4.05000000000000 0.00000000000000
0.00000000000000 0.00000000000000 36.44999999999999

ATOMIC_POSITIONS angstrom
Al 0.0000000000 0.0000000000 0.0000000000 
Al 2.0250000000 2.0250000000 0.0000000000 
Al 0.0000000000 2.0250000000 2.0250000000 
Al 2.0250000000 0.0000000000 2.0250000000 
Al 0.0000000000 0.0000000000 4.0500000000 
Al 2.0250000000 2.0250000000 4.0500000000 
Al 0.0000000000 2.0250000000 6.0750000000 
Al 2.0250000000 0.0000000000 6.0750000000 
Al 0.0000000000 0.0000000000 8.1000000000 
Al 2.0250000000 2.0250000000 8.1000000000 
Al 0.0000000000 2.0250000000 10.1250000000 
Al 2.0250000000 0.0000000000 10.1250000000 
Al 0.0000000000 0.0000000000 12.1500000000 
Al 2.0250000000 2.0250000000 12.1500000000 
Al 0.0000000000 2.0250000000 14.1750000000 
Al 2.0250000000 0.0000000000 14.1750000000 
Al 0.0000000000 0.0000000000 16.2000000000 
Al 2.0250000000 2.0250000000 16.2000000000 
Al 0.0000000000 2.0250000000 18.2250000000 
Al 2.0250000000 0.0000000000 18.2250000000 

