&CONTROL
   tstress          = .true.
   tprnfor          = .true.
/
&SYSTEM
   ecutwfc          = 40.0
   occupations      = 'smearing'
   degauss          = 0.002
   smearing         = 'gaussian'
   input_dft        = 'pbe'
   ntyp             = 1
   nat              = 40
   ibrav            = 0
/
&ELECTRONS
   electron_maxstep = 50
   conv_thr         = 2e-11
   mixing_mode      = 'local-TF'
   mixing_beta      = 0.7
   mixing_ndim      = 10
/
&IONS
/
&CELL
/

ATOMIC_SPECIES
Al 26.9815385 Al.pbe-hgh.UPF

K_POINTS automatic
6 6 1  0 0 0

CELL_PARAMETERS angstrom
4.05000000000000 0.00000000000000 0.00000000000000
0.00000000000000 4.05000000000000 0.00000000000000
0.00000000000000 0.00000000000000 76.94999999999999

ATOMIC_POSITIONS angstrom
Al 0.0000000000 0.0000000000 0.0000000000 
Al 2.0250000000 2.0250000000 0.0000000000 
Al 0.0000000000 2.0250000000 2.0250000000 
Al 2.0250000000 0.0000000000 2.0250000000 
Al 0.0000000000 0.0000000000 4.0500000000 
Al 2.0250000000 2.0250000000 4.0500000000 
Al 0.0000000000 2.0250000000 6.0750000000 
Al 2.0250000000 0.0000000000 6.0750000000 
Al 0.0000000000 0.0000000000 8.1000000000 
Al 2.0250000000 2.0250000000 8.1000000000 
Al 0.0000000000 2.0250000000 10.1250000000 
Al 2.0250000000 0.0000000000 10.1250000000 
Al 0.0000000000 0.0000000000 12.1500000000 
Al 2.0250000000 2.0250000000 12.1500000000 
Al 0.0000000000 2.0250000000 14.1750000000 
Al 2.0250000000 0.0000000000 14.1750000000 
Al 0.0000000000 0.0000000000 16.2000000000 
Al 2.0250000000 2.0250000000 16.2000000000 
Al 0.0000000000 2.0250000000 18.2250000000 
Al 2.0250000000 0.0000000000 18.2250000000 
Al 0.0000000000 0.0000000000 20.2500000000 
Al 2.0250000000 2.0250000000 20.2500000000 
Al 0.0000000000 2.0250000000 22.2750000000 
Al 2.0250000000 0.0000000000 22.2750000000 
Al 0.0000000000 0.0000000000 24.3000000000 
Al 2.0250000000 2.0250000000 24.3000000000 
Al 0.0000000000 2.0250000000 26.3250000000 
Al 2.0250000000 0.0000000000 26.3250000000 
Al 0.0000000000 0.0000000000 28.3500000000 
Al 2.0250000000 2.0250000000 28.3500000000 
Al 0.0000000000 2.0250000000 30.3750000000 
Al 2.0250000000 0.0000000000 30.3750000000 
Al 0.0000000000 0.0000000000 32.4000000000 
Al 2.0250000000 2.0250000000 32.4000000000 
Al 0.0000000000 2.0250000000 34.4250000000 
Al 2.0250000000 0.0000000000 34.4250000000 
Al 0.0000000000 0.0000000000 36.4500000000 
Al 2.0250000000 2.0250000000 36.4500000000 
Al 0.0000000000 2.0250000000 38.4750000000 
Al 2.0250000000 0.0000000000 38.4750000000 

